n = 15;
edge = [| 2, 1 
| 4, 1 
| 5, 1 
| 6, 1 
| 8, 1 
| 9, 1 
| 13, 1 
| 14, 1 
| 3, 2 
| 5, 2 
| 6, 2 
| 9, 2 
| 2, 3 
| 4, 3 
| 5, 3 
| 6, 3 
| 7, 3 
| 8, 3 
| 11, 3 
| 3, 4 
| 7, 4 
| 10, 4 
| 12, 4 
| 14, 4 
| 6, 5 
| 7, 5 
| 9, 5 
| 10, 5 
| 11, 5 
| 12, 5 
| 13, 5 
| 15, 5 
| 1, 6 
| 7, 6 
| 11, 6 
| 14, 6 
| 3, 7 
| 8, 7 
| 11, 7 
| 13, 7 
| 14, 7 
| 15, 7 
| 2, 8 
| 5, 8 
| 9, 8 
| 10, 8 
| 11, 8 
| 13, 8 
| 14, 8 
| 1, 9 
| 7, 9 
| 10, 9 
| 11, 9 
| 12, 9 
| 13, 9 
| 14, 9 
| 15, 9 
| 1, 10 
| 2, 10 
| 3, 10 
| 5, 10 
| 6, 10 
| 8, 10 
| 9, 10 
| 12, 10 
| 14, 10 
| 1, 11 
| 2, 11 
| 3, 11 
| 4, 11 
| 7, 11 
| 9, 11 
| 1, 12 
| 3, 12 
| 5, 12 
| 6, 12 
| 8, 12 
| 10, 12 
| 11, 12 
| 15, 12 
| 1, 13 
| 3, 13 
| 5, 13 
| 7, 13 
| 8, 13 
| 12, 13 
| 14, 13 
| 15, 13 
| 6, 14 
| 7, 14 
| 8, 14 
| 10, 14 
| 1, 15 
| 2, 15 
| 4, 15 
| 10, 15 
| 13, 15 
| 14, 15 
|];
